MARKOV
67
2 2 2 2 2 2 2 2 2 2 2 2 2 4 4 4 4 4 2 2 2 2 2 2 2 4 4 2 4 2 4 4 4 4 4 2 4 4 4 2 2 4 4 2 4 4 2 4 4 4 4 4 2 2 2 4 2 2 2 2 2 2 4 2 4 4 2
271
2 31 30
2 45 39
2 24 25
2 23 22
2 38 32
2 24 26
2 49 47
2 38 39
2 50 41
2 35 38
2 34 36
2 50 48
3 6 20 13
2 50 51
2 41 46
2 50 46
2 48 41
2 20 18
2 51 41
3 40 58 55
3 58 55 41
2 51 48
2 48 46
2 7 4
3 44 58 55
3 58 55 46
2 11 8
2 7 5
2 40 43
3 6 18 13
2 35 34
2 45 43
2 34 32
2 10 9
2 23 21
3 43 58 55
2 50 36
3 45 58 55
2 44 43
2 34 39
2 38 43
2 63 62
2 40 38
2 17 13
2 48 36
3 58 55 36
2 49 43
2 52 55
2 50 47
2 44 38
2 56 52
3 5 20 13
2 40 41
2 42 41
2 66 62
2 45 41
2 48 47
2 65 64
2 51 47
2 54 53
2 40 46
2 50 45
2 35 37
2 41 39
2 42 46
2 44 41
2 45 46
2 38 41
3 8 23 17
2 44 48
2 43 37
2 11 12
2 11 10
2 56 54
2 48 45
2 44 46
2 14 16
2 38 46
2 50 42
2 49 41
3 58 55 39
2 36 39
3 7 19 13
2 31 33
2 35 39
3 8 22 17
2 5 15
2 49 46
2 48 42
2 50 49
2 40 36
3 5 19 13
2 43 39
2 12 9
2 44 36
2 20 22
2 40 33
2 37 39
2 52 53
2 40 32
2 44 47
2 38 33
2 40 45
2 40 39
2 44 40
2 23 19
2 44 32
2 45 37
2 44 45
2 40 42
2 44 39
2 7 6
2 29 28
2 45 42
2 63 64
2 38 37
2 27 28
2 6 15
2 29 31
2 20 21
2 49 45
2 38 42
2 49 37
2 35 31
2 47 46
2 5 14
2 49 42
2 34 33
2 17 16
2 36 46
2 66 64
2 15 16
2 43 41
2 56 55
2 8 9
2 43 46
2 54 55
2 34 37
2 37 41
3 6 19 13
2 19 21
2 15 13
2 19 18
2 37 46
2 35 36
2 15 17
2 23 18
2 43 36
2 7 15
2 4 5
2 33 36
3 7 20 13
2 35 33
2 50 37
2 22 21
3 8 21 17
2 63 65
2 22 18
2 6 14
2 56 53
2 37 36
2 43 47
2 35 32
2 53 55
3 58 55 37
2 40 34
2 51 42
3 7 18 13
3 58 55 42
2 33 32
2 66 65
3 5 18 13
2 33 39
2 28 30
2 20 19
2 38 34
2 37 32
2 43 42
2 29 30
2 27 30
2 49 48
2 50 44
2 31 32
2 42 36
2 45 36
2 11 9
2 44 33
2 14 13
2 38 36
3 38 58 55
2 40 37
2 50 43
2 6 5
2 7 14
2 42 47
2 45 47
2 49 36
2 48 43
2 44 37
2 32 39
2 62 64
2 15 14
2 44 42
2 42 39
1 0
1 1
1 2
1 3
1 4
1 5
1 6
1 7
1 8
1 9
1 10
1 11
1 12
1 13
1 14
1 15
1 16
1 17
1 18
1 19
1 20
1 21
1 22
1 23
1 24
1 25
1 26
1 27
1 28
1 29
1 30
1 31
1 32
1 33
1 34
1 35
1 36
1 37
1 38
1 39
1 40
1 41
1 42
1 43
1 44
1 45
1 46
1 47
1 48
1 49
1 50
1 51
1 52
1 53
1 54
1 55
1 56
1 57
1 58
1 59
1 60
1 61
1 62
1 63
1 64
1 65
1 66
16
0.0001
1.0
1.0
1.0
1.0
0.0001
1.0
1.0
1.0
1.0
0.0001
1.0
1.0
1.0
1.0
1.0

8
0.0001
1.0
1.0
1.0
0.0001
1.0
1.0
1.0

8
0.0001
1.0
0.0001
1.0
1.0
1.0
1.0
1.0

4
0.0001
1.0
1.0
1.0

16
0.0001
1.0
1.0
1.0
1.0
0.0001
1.0
1.0
1.0
1.0
0.0001
1.0
1.0
1.0
1.0
1.0

8
0.0001
1.0
0.0001
1.0
1.0
1.0
1.0
1.0

16
0.0001
1.0
1.0
1.0
1.0
0.0001
1.0
1.0
1.0
1.0
0.0001
1.0
1.0
1.0
1.0
1.0

8
0.0001
1.0
1.0
1.0
0.0001
1.0
1.0
1.0

16
0.0001
1.0
1.0
1.0
1.0
0.0001
1.0
1.0
1.0
1.0
0.0001
1.0
1.0
1.0
1.0
1.0

8
0.0001
1.0
0.0001
1.0
1.0
1.0
1.0
1.0

16
0.0001
1.0
1.0
1.0
1.0
0.0001
1.0
1.0
1.0
1.0
0.0001
1.0
1.0
1.0
1.0
1.0

16
0.0001
1.0
1.0
1.0
1.0
0.0001
1.0
1.0
1.0
1.0
0.0001
1.0
1.0
1.0
1.0
1.0

16
1.0
0.0001
1.0
1.0
1.0
1.0
1.0
1.0
1.0
1.0
1.0
1.0
1.0
1.0
1.0
1.0

16
0.0001
1.0
1.0
1.0
1.0
0.0001
1.0
1.0
1.0
1.0
0.0001
1.0
1.0
1.0
1.0
1.0

8
0.0001
1.0
1.0
1.0
0.0001
1.0
1.0
1.0

8
0.0001
1.0
1.0
1.0
0.0001
1.0
1.0
1.0

16
0.0001
1.0
1.0
1.0
1.0
0.0001
1.0
1.0
1.0
1.0
0.0001
1.0
1.0
1.0
1.0
1.0

4
0.0001
1.0
1.0
1.0

16
0.0001
1.0
1.0
1.0
1.0
0.0001
1.0
1.0
1.0
1.0
0.0001
1.0
1.0
1.0
1.0
1.0

16
1.0
0.0001
1.0
1.0
1.0
1.0
1.0
1.0
1.0
1.0
1.0
1.0
1.0
1.0
1.0
1.0

32
1.0
1.0
1.0
1.0
1.0
1.0
0.0001
1.0
1.0
1.0
1.0
1.0
1.0
1.0
1.0
1.0
1.0
1.0
1.0
1.0
1.0
1.0
1.0
1.0
1.0
1.0
1.0
1.0
1.0
1.0
1.0
1.0

16
0.0001
1.0
1.0
1.0
1.0
0.0001
1.0
1.0
1.0
1.0
0.0001
1.0
1.0
1.0
1.0
1.0

8
0.0001
1.0
1.0
1.0
0.0001
1.0
1.0
1.0

4
0.0001
1.0
1.0
1.0

32
1.0
1.0
1.0
1.0
1.0
1.0
1.0
1.0
1.0
1.0
1.0
1.0
1.0
1.0
1.0
1.0
1.0
0.0001
1.0
1.0
1.0
1.0
1.0
1.0
1.0
1.0
1.0
1.0
1.0
1.0
1.0
1.0

16
1.0
1.0
0.0001
1.0
1.0
1.0
1.0
1.0
1.0
1.0
1.0
1.0
1.0
1.0
1.0
1.0

4
0.0001
1.0
1.0
1.0

4
0.0001
1.0
1.0
1.0

4
0.0001
1.0
1.0
1.0

16
1.0
0.0001
1.0
1.0
1.0
1.0
1.0
1.0
1.0
1.0
1.0
1.0
1.0
1.0
1.0
1.0

8
0.0001
1.0
0.0001
1.0
1.0
1.0
1.0
1.0

8
0.0001
1.0
1.0
1.0
0.0001
1.0
1.0
1.0

16
0.0001
1.0
1.0
1.0
1.0
0.0001
1.0
1.0
1.0
1.0
0.0001
1.0
1.0
1.0
1.0
1.0

4
0.0001
1.0
1.0
1.0

4
0.0001
1.0
1.0
1.0

16
1.0
0.0001
1.0
1.0
1.0
1.0
1.0
1.0
1.0
1.0
1.0
1.0
1.0
1.0
1.0
1.0

16
0.0001
1.0
1.0
1.0
1.0
0.0001
1.0
1.0
1.0
1.0
0.0001
1.0
1.0
1.0
1.0
1.0

32
1.0
1.0
1.0
1.0
1.0
1.0
1.0
1.0
1.0
1.0
1.0
1.0
1.0
1.0
1.0
1.0
1.0
0.0001
1.0
1.0
1.0
1.0
1.0
1.0
1.0
1.0
1.0
1.0
1.0
1.0
1.0
1.0

8
0.0001
1.0
1.0
1.0
0.0001
1.0
1.0
1.0

8
0.0001
1.0
1.0
1.0
0.0001
1.0
1.0
1.0

8
0.0001
1.0
1.0
1.0
0.0001
1.0
1.0
1.0

8
1.0
0.0001
1.0
1.0
1.0
1.0
1.0
1.0

8
0.0001
1.0
0.0001
1.0
1.0
1.0
1.0
1.0

16
0.0001
1.0
1.0
1.0
1.0
0.0001
1.0
1.0
1.0
1.0
0.0001
1.0
1.0
1.0
1.0
1.0

16
0.0001
1.0
1.0
1.0
1.0
0.0001
1.0
1.0
1.0
1.0
0.0001
1.0
1.0
1.0
1.0
1.0

32
1.0
1.0
1.0
1.0
1.0
1.0
0.0001
1.0
1.0
1.0
1.0
1.0
1.0
1.0
1.0
1.0
1.0
1.0
1.0
1.0
1.0
1.0
1.0
1.0
1.0
1.0
1.0
1.0
1.0
1.0
1.0
1.0

8
0.0001
1.0
1.0
1.0
0.0001
1.0
1.0
1.0

8
0.0001
1.0
0.0001
1.0
1.0
1.0
1.0
1.0

16
0.0001
1.0
1.0
1.0
1.0
0.0001
1.0
1.0
1.0
1.0
0.0001
1.0
1.0
1.0
1.0
1.0

16
0.0001
1.0
1.0
1.0
1.0
0.0001
1.0
1.0
1.0
1.0
0.0001
1.0
1.0
1.0
1.0
1.0

4
0.0001
1.0
1.0
1.0

16
1.0
0.0001
1.0
1.0
1.0
1.0
1.0
1.0
1.0
1.0
1.0
1.0
1.0
1.0
1.0
1.0

8
0.0001
1.0
0.0001
1.0
1.0
1.0
1.0
1.0

16
0.0001
1.0
1.0
1.0
1.0
0.0001
1.0
1.0
1.0
1.0
0.0001
1.0
1.0
1.0
1.0
1.0

8
1.0
0.0001
1.0
1.0
1.0
1.0
1.0
1.0

16
0.0001
1.0
1.0
1.0
1.0
0.0001
1.0
1.0
1.0
1.0
0.0001
1.0
1.0
1.0
1.0
1.0

16
0.0001
1.0
1.0
1.0
1.0
0.0001
1.0
1.0
1.0
1.0
0.0001
1.0
1.0
1.0
1.0
1.0

16
0.0001
1.0
1.0
1.0
1.0
0.0001
1.0
1.0
1.0
1.0
0.0001
1.0
1.0
1.0
1.0
1.0

16
0.0001
1.0
1.0
1.0
1.0
0.0001
1.0
1.0
1.0
1.0
0.0001
1.0
1.0
1.0
1.0
1.0

4
0.0001
1.0
1.0
1.0

4
0.0001
1.0
1.0
1.0

16
0.0001
1.0
1.0
1.0
1.0
0.0001
1.0
1.0
1.0
1.0
0.0001
1.0
1.0
1.0
1.0
1.0

8
0.0001
1.0
0.0001
1.0
1.0
1.0
1.0
1.0

8
0.0001
1.0
1.0
1.0
0.0001
1.0
1.0
1.0

8
0.0001
1.0
1.0
1.0
0.0001
1.0
1.0
1.0

16
0.0001
1.0
1.0
1.0
1.0
0.0001
1.0
1.0
1.0
1.0
0.0001
1.0
1.0
1.0
1.0
1.0

8
0.0001
1.0
1.0
1.0
0.0001
1.0
1.0
1.0

16
0.0001
1.0
1.0
1.0
1.0
0.0001
1.0
1.0
1.0
1.0
0.0001
1.0
1.0
1.0
1.0
1.0

16
1.0
0.0001
1.0
1.0
1.0
1.0
1.0
1.0
1.0
1.0
1.0
1.0
1.0
1.0
1.0
1.0

16
0.0001
1.0
1.0
1.0
1.0
0.0001
1.0
1.0
1.0
1.0
0.0001
1.0
1.0
1.0
1.0
1.0

8
0.0001
1.0
0.0001
1.0
1.0
1.0
1.0
1.0

4
0.0001
1.0
1.0
1.0

4
0.0001
1.0
1.0
1.0

4
0.0001
1.0
1.0
1.0

16
0.0001
1.0
1.0
1.0
1.0
0.0001
1.0
1.0
1.0
1.0
0.0001
1.0
1.0
1.0
1.0
1.0

8
0.0001
1.0
1.0
1.0
0.0001
1.0
1.0
1.0

16
0.0001
1.0
1.0
1.0
1.0
0.0001
1.0
1.0
1.0
1.0
0.0001
1.0
1.0
1.0
1.0
1.0

8
0.0001
1.0
1.0
1.0
0.0001
1.0
1.0
1.0

16
0.0001
1.0
1.0
1.0
1.0
0.0001
1.0
1.0
1.0
1.0
0.0001
1.0
1.0
1.0
1.0
1.0

16
0.0001
1.0
1.0
1.0
1.0
0.0001
1.0
1.0
1.0
1.0
0.0001
1.0
1.0
1.0
1.0
1.0

16
1.0
1.0
0.0001
1.0
1.0
1.0
1.0
1.0
1.0
1.0
1.0
1.0
1.0
1.0
1.0
1.0

8
0.0001
1.0
1.0
1.0
0.0001
1.0
1.0
1.0

16
1.0
0.0001
1.0
1.0
1.0
1.0
1.0
1.0
1.0
1.0
1.0
1.0
1.0
1.0
1.0
1.0

16
0.0001
1.0
1.0
1.0
1.0
0.0001
1.0
1.0
1.0
1.0
0.0001
1.0
1.0
1.0
1.0
1.0

4
0.0001
1.0
1.0
1.0

16
1.0
0.0001
1.0
1.0
1.0
1.0
1.0
1.0
1.0
1.0
1.0
1.0
1.0
1.0
1.0
1.0

8
1.0
0.0001
1.0
1.0
1.0
1.0
1.0
1.0

8
0.0001
1.0
1.0
1.0
0.0001
1.0
1.0
1.0

16
0.0001
1.0
1.0
1.0
1.0
0.0001
1.0
1.0
1.0
1.0
0.0001
1.0
1.0
1.0
1.0
1.0

16
0.0001
1.0
1.0
1.0
1.0
0.0001
1.0
1.0
1.0
1.0
0.0001
1.0
1.0
1.0
1.0
1.0

8
0.0001
1.0
0.0001
1.0
1.0
1.0
1.0
1.0

16
1.0
0.0001
1.0
1.0
1.0
1.0
1.0
1.0
1.0
1.0
1.0
1.0
1.0
1.0
1.0
1.0

4
0.0001
1.0
1.0
1.0

4
0.0001
1.0
1.0
1.0

16
0.0001
1.0
1.0
1.0
1.0
0.0001
1.0
1.0
1.0
1.0
0.0001
1.0
1.0
1.0
1.0
1.0

4
0.0001
1.0
1.0
1.0

8
0.0001
1.0
0.0001
1.0
1.0
1.0
1.0
1.0

8
0.0001
1.0
1.0
1.0
0.0001
1.0
1.0
1.0

4
0.0001
1.0
1.0
1.0

8
0.0001
1.0
0.0001
1.0
1.0
1.0
1.0
1.0

16
0.0001
1.0
1.0
1.0
1.0
0.0001
1.0
1.0
1.0
1.0
0.0001
1.0
1.0
1.0
1.0
1.0

16
0.0001
1.0
1.0
1.0
1.0
0.0001
1.0
1.0
1.0
1.0
0.0001
1.0
1.0
1.0
1.0
1.0

8
0.0001
1.0
0.0001
1.0
1.0
1.0
1.0
1.0

4
0.0001
1.0
1.0
1.0

8
0.0001
1.0
1.0
1.0
0.0001
1.0
1.0
1.0

4
0.0001
1.0
1.0
1.0

16
0.0001
1.0
1.0
1.0
1.0
0.0001
1.0
1.0
1.0
1.0
0.0001
1.0
1.0
1.0
1.0
1.0

16
0.0001
1.0
1.0
1.0
1.0
0.0001
1.0
1.0
1.0
1.0
0.0001
1.0
1.0
1.0
1.0
1.0

16
0.0001
1.0
1.0
1.0
1.0
0.0001
1.0
1.0
1.0
1.0
0.0001
1.0
1.0
1.0
1.0
1.0

8
0.0001
1.0
0.0001
1.0
1.0
1.0
1.0
1.0

8
0.0001
1.0
1.0
1.0
0.0001
1.0
1.0
1.0

4
0.0001
1.0
1.0
1.0

8
0.0001
1.0
0.0001
1.0
1.0
1.0
1.0
1.0

16
0.0001
1.0
1.0
1.0
1.0
0.0001
1.0
1.0
1.0
1.0
0.0001
1.0
1.0
1.0
1.0
1.0

8
1.0
0.0001
1.0
1.0
1.0
1.0
1.0
1.0

16
0.0001
1.0
1.0
1.0
1.0
0.0001
1.0
1.0
1.0
1.0
0.0001
1.0
1.0
1.0
1.0
1.0

8
0.0001
1.0
0.0001
1.0
1.0
1.0
1.0
1.0

8
1.0
0.0001
1.0
1.0
1.0
1.0
1.0
1.0

8
0.0001
1.0
0.0001
1.0
1.0
1.0
1.0
1.0

4
0.0001
1.0
1.0
1.0

16
0.0001
1.0
1.0
1.0
1.0
0.0001
1.0
1.0
1.0
1.0
0.0001
1.0
1.0
1.0
1.0
1.0

16
0.0001
1.0
1.0
1.0
1.0
0.0001
1.0
1.0
1.0
1.0
0.0001
1.0
1.0
1.0
1.0
1.0

16
0.0001
1.0
1.0
1.0
1.0
0.0001
1.0
1.0
1.0
1.0
0.0001
1.0
1.0
1.0
1.0
1.0

8
0.0001
1.0
0.0001
1.0
1.0
1.0
1.0
1.0

8
0.0001
1.0
1.0
1.0
0.0001
1.0
1.0
1.0

8
1.0
0.0001
1.0
1.0
1.0
1.0
1.0
1.0

16
0.0001
1.0
1.0
1.0
1.0
0.0001
1.0
1.0
1.0
1.0
0.0001
1.0
1.0
1.0
1.0
1.0

16
0.0001
1.0
1.0
1.0
1.0
0.0001
1.0
1.0
1.0
1.0
0.0001
1.0
1.0
1.0
1.0
1.0

16
0.0001
1.0
1.0
1.0
1.0
0.0001
1.0
1.0
1.0
1.0
0.0001
1.0
1.0
1.0
1.0
1.0

8
0.0001
1.0
1.0
1.0
0.0001
1.0
1.0
1.0

8
1.0
0.0001
1.0
1.0
1.0
1.0
1.0
1.0

16
0.0001
1.0
1.0
1.0
1.0
0.0001
1.0
1.0
1.0
1.0
0.0001
1.0
1.0
1.0
1.0
1.0

8
0.0001
1.0
0.0001
1.0
1.0
1.0
1.0
1.0

8
0.0001
1.0
0.0001
1.0
1.0
1.0
1.0
1.0

4
0.0001
1.0
1.0
1.0

4
0.0001
1.0
1.0
1.0

8
0.0001
1.0
0.0001
1.0
1.0
1.0
1.0
1.0

16
0.0001
1.0
1.0
1.0
1.0
0.0001
1.0
1.0
1.0
1.0
0.0001
1.0
1.0
1.0
1.0
1.0

16
0.0001
1.0
1.0
1.0
1.0
0.0001
1.0
1.0
1.0
1.0
0.0001
1.0
1.0
1.0
1.0
1.0

16
1.0
0.0001
1.0
1.0
1.0
1.0
1.0
1.0
1.0
1.0
1.0
1.0
1.0
1.0
1.0
1.0

4
0.0001
1.0
1.0
1.0

16
0.0001
1.0
1.0
1.0
1.0
0.0001
1.0
1.0
1.0
1.0
0.0001
1.0
1.0
1.0
1.0
1.0

4
0.0001
1.0
1.0
1.0

8
0.0001
1.0
1.0
1.0
0.0001
1.0
1.0
1.0

8
0.0001
1.0
0.0001
1.0
1.0
1.0
1.0
1.0

16
0.0001
1.0
1.0
1.0
1.0
0.0001
1.0
1.0
1.0
1.0
0.0001
1.0
1.0
1.0
1.0
1.0

4
0.0001
1.0
1.0
1.0

8
0.0001
1.0
0.0001
1.0
1.0
1.0
1.0
1.0

8
1.0
0.0001
1.0
1.0
1.0
1.0
1.0
1.0

4
0.0001
1.0
1.0
1.0

16
0.0001
1.0
1.0
1.0
1.0
0.0001
1.0
1.0
1.0
1.0
0.0001
1.0
1.0
1.0
1.0
1.0

16
1.0
0.0001
1.0
1.0
1.0
1.0
1.0
1.0
1.0
1.0
1.0
1.0
1.0
1.0
1.0
1.0

8
0.0001
1.0
0.0001
1.0
1.0
1.0
1.0
1.0

16
0.0001
1.0
1.0
1.0
1.0
0.0001
1.0
1.0
1.0
1.0
0.0001
1.0
1.0
1.0
1.0
1.0

4
0.0001
1.0
1.0
1.0

16
1.0
0.0001
1.0
1.0
1.0
1.0
1.0
1.0
1.0
1.0
1.0
1.0
1.0
1.0
1.0
1.0

8
1.0
0.0001
1.0
1.0
1.0
1.0
1.0
1.0

4
0.0001
1.0
1.0
1.0

8
1.0
0.0001
1.0
1.0
1.0
1.0
1.0
1.0

4
0.0001
1.0
1.0
1.0

16
0.0001
1.0
1.0
1.0
1.0
0.0001
1.0
1.0
1.0
1.0
0.0001
1.0
1.0
1.0
1.0
1.0

8
0.0001
1.0
0.0001
1.0
1.0
1.0
1.0
1.0

8
0.0001
1.0
0.0001
1.0
1.0
1.0
1.0
1.0

8
0.0001
1.0
0.0001
1.0
1.0
1.0
1.0
1.0

32
1.0
1.0
1.0
1.0
1.0
1.0
0.0001
1.0
1.0
1.0
1.0
1.0
1.0
1.0
1.0
1.0
1.0
1.0
1.0
1.0
1.0
1.0
1.0
1.0
1.0
1.0
1.0
1.0
1.0
1.0
1.0
1.0

8
0.0001
1.0
0.0001
1.0
1.0
1.0
1.0
1.0

16
0.0001
1.0
1.0
1.0
1.0
0.0001
1.0
1.0
1.0
1.0
0.0001
1.0
1.0
1.0
1.0
1.0

16
1.0
0.0001
1.0
1.0
1.0
1.0
1.0
1.0
1.0
1.0
1.0
1.0
1.0
1.0
1.0
1.0

32
1.0
1.0
1.0
1.0
1.0
1.0
0.0001
1.0
1.0
1.0
1.0
1.0
1.0
1.0
1.0
1.0
1.0
1.0
1.0
1.0
1.0
1.0
1.0
1.0
1.0
1.0
1.0
1.0
1.0
1.0
1.0
1.0

16
0.0001
1.0
1.0
1.0
1.0
0.0001
1.0
1.0
1.0
1.0
0.0001
1.0
1.0
1.0
1.0
1.0

8
1.0
0.0001
1.0
1.0
1.0
1.0
1.0
1.0

16
1.0
0.0001
1.0
1.0
1.0
1.0
1.0
1.0
1.0
1.0
1.0
1.0
1.0
1.0
1.0
1.0

8
0.0001
1.0
1.0
1.0
0.0001
1.0
1.0
1.0

16
0.0001
1.0
1.0
1.0
1.0
0.0001
1.0
1.0
1.0
1.0
0.0001
1.0
1.0
1.0
1.0
1.0

4
0.0001
1.0
1.0
1.0

16
0.0001
1.0
1.0
1.0
1.0
0.0001
1.0
1.0
1.0
1.0
0.0001
1.0
1.0
1.0
1.0
1.0

16
0.0001
1.0
1.0
1.0
1.0
0.0001
1.0
1.0
1.0
1.0
0.0001
1.0
1.0
1.0
1.0
1.0

8
0.0001
1.0
0.0001
1.0
1.0
1.0
1.0
1.0

8
0.0001
1.0
0.0001
1.0
1.0
1.0
1.0
1.0

8
0.0001
1.0
0.0001
1.0
1.0
1.0
1.0
1.0

16
0.0001
1.0
1.0
1.0
1.0
0.0001
1.0
1.0
1.0
1.0
0.0001
1.0
1.0
1.0
1.0
1.0

16
0.0001
1.0
1.0
1.0
1.0
0.0001
1.0
1.0
1.0
1.0
0.0001
1.0
1.0
1.0
1.0
1.0

16
0.0001
1.0
1.0
1.0
1.0
0.0001
1.0
1.0
1.0
1.0
0.0001
1.0
1.0
1.0
1.0
1.0

16
0.0001
1.0
1.0
1.0
1.0
0.0001
1.0
1.0
1.0
1.0
0.0001
1.0
1.0
1.0
1.0
1.0

16
0.0001
1.0
1.0
1.0
1.0
0.0001
1.0
1.0
1.0
1.0
0.0001
1.0
1.0
1.0
1.0
1.0

4
0.0001
1.0
1.0
1.0

16
0.0001
1.0
1.0
1.0
1.0
0.0001
1.0
1.0
1.0
1.0
0.0001
1.0
1.0
1.0
1.0
1.0

16
0.0001
1.0
1.0
1.0
1.0
0.0001
1.0
1.0
1.0
1.0
0.0001
1.0
1.0
1.0
1.0
1.0

16
0.0001
1.0
1.0
1.0
1.0
0.0001
1.0
1.0
1.0
1.0
0.0001
1.0
1.0
1.0
1.0
1.0

32
1.0
1.0
1.0
1.0
1.0
1.0
1.0
1.0
1.0
1.0
1.0
1.0
1.0
1.0
1.0
1.0
1.0
0.0001
1.0
1.0
1.0
1.0
1.0
1.0
1.0
1.0
1.0
1.0
1.0
1.0
1.0
1.0

8
0.0001
1.0
0.0001
1.0
1.0
1.0
1.0
1.0

8
0.0001
1.0
1.0
1.0
0.0001
1.0
1.0
1.0

4
0.0001
1.0
1.0
1.0

8
1.0
0.0001
1.0
1.0
1.0
1.0
1.0
1.0

16
0.0001
1.0
1.0
1.0
1.0
0.0001
1.0
1.0
1.0
1.0
0.0001
1.0
1.0
1.0
1.0
1.0

16
0.0001
1.0
1.0
1.0
1.0
0.0001
1.0
1.0
1.0
1.0
0.0001
1.0
1.0
1.0
1.0
1.0

16
0.0001
1.0
1.0
1.0
1.0
0.0001
1.0
1.0
1.0
1.0
0.0001
1.0
1.0
1.0
1.0
1.0

8
0.0001
1.0
1.0
1.0
0.0001
1.0
1.0
1.0

16
0.0001
1.0
1.0
1.0
1.0
0.0001
1.0
1.0
1.0
1.0
0.0001
1.0
1.0
1.0
1.0
1.0

8
0.0001
1.0
1.0
1.0
0.0001
1.0
1.0
1.0

16
0.0001
1.0
1.0
1.0
1.0
0.0001
1.0
1.0
1.0
1.0
0.0001
1.0
1.0
1.0
1.0
1.0

16
0.0001
1.0
1.0
1.0
1.0
0.0001
1.0
1.0
1.0
1.0
0.0001
1.0
1.0
1.0
1.0
1.0

16
0.0001
1.0
1.0
1.0
1.0
0.0001
1.0
1.0
1.0
1.0
0.0001
1.0
1.0
1.0
1.0
1.0

8
0.0001
1.0
1.0
1.0
0.0001
1.0
1.0
1.0

2
1.0
0.843190929287

2
1.0
0.843190929287

2
1.0
0.843190929287

2
1.0
0.843190929287

2
1.0
0.843190929287

2
1.0
0.843190929287

2
1.0
0.843190929287

2
1.0
0.843190929287

2
1.0
0.843190929287

2
1.0
0.843190929287

2
1.0
0.843190929287

2
1.0
0.843190929287

2
1.0
0.843190929287

4
1.0
1.0
1.0
0.918254283566

4
1.0
1.0
1.0
0.918254283566

4
1.0
1.0
1.0
0.918254283566

4
1.0
1.0
1.0
0.918254283566

4
1.0
1.0
1.0
0.918254283566

2
1.0
0.843190929287

2
1.0
0.843190929287

2
1.0
0.843190929287

2
1.0
0.843190929287

2
1.0
0.843190929287

2
1.0
0.843190929287

2
1.0
0.843190929287

4
1.0
1.0
1.0
0.918254283566

4
1.0
1.0
1.0
0.918254283566

2
1.0
0.843190929287

4
1.0
1.0
1.0
0.918254283566

2
1.0
0.843190929287

4
1.0
1.0
1.0
0.918254283566

4
1.0
1.0
1.0
0.918254283566

4
1.0
1.0
1.0
0.918254283566

4
1.0
1.0
1.0
0.918254283566

4
1.0
1.0
1.0
0.918254283566

2
1.0
0.843190929287

4
1.0
1.0
1.0
0.918254283566

4
1.0
1.0
1.0
0.918254283566

4
1.0
1.0
1.0
0.918254283566

2
1.0
0.843190929287

2
1.0
0.843190929287

4
1.0
1.0
1.0
0.918254283566

4
1.0
1.0
1.0
0.918254283566

2
1.0
0.843190929287

4
1.0
1.0
1.0
0.918254283566

4
1.0
1.0
1.0
0.918254283566

2
1.0
0.843190929287

4
1.0
1.0
1.0
0.918254283566

4
1.0
1.0
1.0
0.918254283566

4
1.0
1.0
1.0
0.918254283566

4
1.0
1.0
1.0
0.918254283566

4
1.0
1.0
1.0
0.918254283566

2
1.0
0.843190929287

2
1.0
0.843190929287

2
1.0
0.843190929287

4
1.0
1.0
1.0
0.918254283566

2
1.0
0.843190929287

2
1.0
0.843190929287

2
1.0
0.843190929287

2
1.0
0.918254283566

2
1.0
0.843190929287

2
1.0
0.843190929287

4
1.0
1.0
1.0
0.843190929287

2
1.0
0.843190929287

4
1.0
1.0
1.0
0.843190929287

4
1.0
1.0
1.0
0.843190929287

2
1.0
0.843190929287

